NAME : instances/clustered-mixed-tsp/instance-12.tsp
COMMENT : No Comment
TYPE : TSP
DIMENSION: 51
EDGE_WEIGHT_TYPE : EUC_2D
NODE_COORD_SECTION
1 116 652 
2 278 397 
3 1729 1723 
4 -11 439 
5 50 506 
6 274 688 
7 175 518 
8 415 279 
9 410 452 
10 287 286 
11 431 335 
12 897 1525 
13 1366 759 
14 364 442 
15 1550 1892 
16 915 1159 
17 77 356 
18 839 1416 
19 1699 1828 
20 366 439 
21 1531 1885 
22 99 699 
23 1712 1702 
24 1649 1715 
25 1470 896 
26 1607 1786 
27 1757 1832 
28 208 642 
29 1693 1685 
30 1643 1693 
31 104 382 
32 1427 770 
33 349 407 
34 288 607 
35 252 384 
36 1031 1148 
37 1425 909 
38 113 429 
39 950 1184 
40 -5 387 
41 748 1416 
42 1724 1874 
43 145 348 
44 776 1473 
45 975 1187 
46 -47 350 
47 0 465 
48 1011 1174 
49 24 416 
50 939 1420 
51 847 1423 
EOF
